NAME : netgen20-5-13
COMMENT : Generated using the function generateClusteredNetwork from the R-package netgen (Bossek,2015) - Number of clusters: 5
TYPE : TSP
DIMENSION : 20
EDGE_WEIGHT_TYPE : EUC_2D
NODE_COORD_SECTION
1 59.4879820538 80.8015736857
2 42.5176294455 79.8592548506
3 48.5405825808 91.0285805444
4 63.0527645539 86.2249889627
5 33.0643419324 45.2197404775
6 45.7771913144 45.984860973
7 28.3772866884 39.6803015183
8 31.5436970742 48.3245383791
9 81.1359589743 5.6696255913
10 80.8320848175 9.9124553221
11 76.6635962402 20.4317761942
12 81.2722862288 14.6352357515
13 11.7350978571 67.4381673681
14 13.6326242173 67.2842925273
15 29.5842999035 76.6348288602
16 20.1873090937 66.0014796333
17 65.1099465679 33.3124760917
18 61.9784818354 29.6979885943
19 46.166819131 22.2777183322
20 63.3160494176 21.3374297887
EOF
